p cnf 469 1336
r 0.5 1 2 3 4 5 6 7 8 9 10 11 12 13 14 15 0
e 16 17 18 19 20 21 22 23 24 25 26 27 28 29 30 31 32 33 34 35 36 37 38 39 40 41 42 43 44 45 46 47 48 49 50 51 52 53 54 55 56 57 58 59 60 61 62 63 64 65 66 67 68 69 70 71 72 73 74 75 76 77 78 79 80 81 82 83 84 85 86 87 88 89 90 91 92 93 94 95 96 97 98 99 100 101 102 103 104 105 106 107 108 109 110 111 112 113 114 115 116 117 118 119 120 121 122 123 124 125 126 127 128 129 130 131 132 133 134 135 136 137 138 139 140 141 142 143 144 145 146 147 148 149 150 151 152 153 154 155 156 157 158 159 160 161 162 163 164 165 166 167 168 169 170 171 172 173 174 175 176 177 178 179 180 181 182 183 184 185 186 187 188 189 190 191 192 193 194 195 196 197 198 199 200 201 202 203 204 205 206 207 208 209 210 211 212 213 214 215 216 217 218 219 220 221 222 223 224 225 226 227 228 229 230 231 232 233 234 235 236 237 238 239 240 241 242 243 244 245 246 247 248 249 250 251 252 253 254 255 256 257 258 259 260 261 262 263 264 265 266 267 268 269 270 271 272 273 274 275 276 277 278 279 280 281 282 283 284 285 286 287 288 289 290 291 292 293 294 295 296 297 298 299 300 301 302 303 304 305 306 307 308 309 310 311 312 313 314 315 316 317 318 319 320 321 322 323 324 325 326 327 328 329 330 331 332 333 334 335 336 337 338 339 340 341 342 343 344 345 346 347 348 349 350 351 352 353 354 355 356 357 358 359 360 361 362 363 364 365 366 367 368 369 370 371 372 373 374 375 376 377 378 379 380 381 382 383 384 385 386 387 388 389 390 391 392 393 394 395 396 397 398 399 400 401 402 403 404 405 406 407 408 409 410 411 412 413 414 415 416 417 418 419 420 421 422 423 424 425 426 427 428 429 430 431 432 433 434 435 436 437 438 439 440 441 442 443 444 445 446 447 448 449 450 451 452 453 454 455 456 457 458 459 460 461 462 463 464 465 466 467 468 469 0
-469 -16 1 0
-468 -17 2 0
-467 -18 3 0
-466 -19 4 0
-465 -20 5 0
-464 -21 6 0
-463 -22 7 0
-462 -23 8 0
-461 -24 9 0
-460 -25 10 0
-459 -26 11 0
-458 -27 12 0
-457 -28 13 0
-456 -29 14 0
-455 -30 15 0
-454 1 0
-454 -16 0
-453 16 0
-453 -1 0
-452 2 0
-452 -17 0
-451 17 0
-451 -2 0
-450 3 0
-450 -18 0
-449 18 0
-449 -3 0
-448 4 0
-448 -19 0
-447 19 0
-447 -4 0
-446 5 0
-446 -20 0
-445 20 0
-445 -5 0
-444 6 0
-444 -21 0
-443 21 0
-443 -6 0
-442 7 0
-442 -22 0
-441 22 0
-441 -7 0
-440 8 0
-440 -23 0
-439 23 0
-439 -8 0
-438 9 0
-438 -24 0
-437 24 0
-437 -9 0
-436 10 0
-436 -25 0
-435 25 0
-435 -10 0
-434 11 0
-434 -26 0
-433 26 0
-433 -11 0
-432 12 0
-432 -27 0
-431 27 0
-431 -12 0
-430 13 0
-430 -28 0
-429 28 0
-429 -13 0
-428 14 0
-428 -29 0
-427 29 0
-427 -14 0
-426 15 0
-426 -30 0
-425 30 0
-425 -15 0
-424 454 453 452 451 450 449 448 447 446 445 444 443 442 441 440 439 438 437 436 435 434 433 432 431 430 429 428 427 426 425 0
-423 15 0
-423 10 0
-423 14 0
-423 2 0
-423 -9 0
-422 14 0
-422 7 0
-422 11 0
-422 -9 0
-421 7 0
-421 12 0
-421 14 0
-421 -9 0
-420 1 0
-420 4 0
-420 12 0
-420 -9 0
-419 15 0
-419 3 0
-419 4 0
-419 13 0
-419 -9 0
-418 14 0
-418 8 0
-418 10 0
-418 13 0
-418 -9 0
-417 6 0
-417 15 0
-417 13 0
-417 8 0
-417 -9 0
-416 8 0
-416 10 0
-416 14 0
-416 13 0
-416 -9 0
-415 14 0
-415 11 0
-415 15 0
-415 -9 0
-414 7 0
-414 8 0
-414 13 0
-414 12 0
-414 -9 0
-413 8 0
-413 7 0
-413 4 0
-413 -13 0
-412 7 0
-412 8 0
-412 12 0
-412 5 0
-412 -13 0
-411 1 0
-411 8 0
-411 11 0
-411 -13 0
-410 4 0
-410 10 0
-410 -13 0
-409 11 0
-409 6 0
-409 12 0
-409 7 0
-409 -13 0
-408 5 0
-408 11 0
-408 2 0
-408 1 0
-408 -13 0
-407 2 0
-407 12 0
-407 11 0
-407 3 0
-407 -13 0
-406 2 0
-406 12 0
-406 6 0
-406 8 0
-406 -13 0
-405 4 0
-405 2 0
-405 5 0
-405 14 0
-405 -13 0
-404 1 0
-404 7 0
-404 14 0
-404 -13 0
-403 11 0
-403 7 0
-403 5 0
-403 -8 0
-402 2 0
-402 3 0
-402 13 0
-402 -8 0
-401 2 0
-401 3 0
-401 7 0
-401 1 0
-401 -8 0
-400 7 0
-400 5 0
-400 2 0
-400 13 0
-400 -8 0
-399 14 0
-399 2 0
-399 7 0
-399 15 0
-399 -8 0
-398 9 0
-398 15 0
-398 7 0
-398 14 0
-398 -8 0
-397 11 0
-397 13 0
-397 2 0
-397 6 0
-397 -8 0
-396 14 0
-396 11 0
-396 7 0
-396 12 0
-396 -8 0
-395 10 0
-395 2 0
-395 4 0
-395 12 0
-395 -8 0
-394 2 0
-394 14 0
-394 4 0
-394 15 0
-394 -8 0
-393 14 0
-393 15 0
-393 9 0
-393 -5 0
-392 3 0
-392 15 0
-392 7 0
-392 13 0
-392 -5 0
-391 14 0
-391 15 0
-391 11 0
-391 3 0
-391 -5 0
-390 7 0
-390 3 0
-390 15 0
-390 6 0
-390 -5 0
-389 1 0
-389 7 0
-389 3 0
-389 11 0
-389 -5 0
-388 9 0
-388 12 0
-388 4 0
-388 -5 0
-387 11 0
-387 1 0
-387 4 0
-387 15 0
-387 -5 0
-386 15 0
-386 10 0
-386 8 0
-386 3 0
-386 -5 0
-385 4 0
-385 14 0
-385 15 0
-385 9 0
-385 -5 0
-384 3 0
-384 1 0
-384 2 0
-384 4 0
-384 -5 0
-383 11 0
-383 10 0
-383 14 0
-383 4 0
-383 -3 0
-382 5 0
-382 1 0
-382 7 0
-382 -3 0
-381 15 0
-381 4 0
-381 1 0
-381 9 0
-381 -3 0
-380 5 0
-380 7 0
-380 6 0
-380 -3 0
-379 1 0
-379 9 0
-379 11 0
-379 -3 0
-378 11 0
-378 5 0
-378 -3 0
-377 12 0
-377 7 0
-377 5 0
-377 -3 0
-376 10 0
-376 4 0
-376 8 0
-376 6 0
-376 -3 0
-375 14 0
-375 7 0
-375 5 0
-375 13 0
-375 -3 0
-374 13 0
-374 11 0
-374 6 0
-374 -3 0
-373 14 0
-373 8 0
-373 7 0
-373 4 0
-373 -15 0
-372 5 0
-372 2 0
-372 11 0
-372 -15 0
-371 10 0
-371 3 0
-371 6 0
-371 7 0
-371 -15 0
-370 14 0
-370 2 0
-370 3 0
-370 -15 0
-369 4 0
-369 10 0
-369 9 0
-369 7 0
-369 -15 0
-368 10 0
-368 1 0
-368 9 0
-368 -15 0
-367 5 0
-367 3 0
-367 6 0
-367 14 0
-367 -15 0
-366 1 0
-366 7 0
-366 14 0
-366 -15 0
-365 1 0
-365 12 0
-365 9 0
-365 8 0
-365 -15 0
-364 2 0
-364 4 0
-364 7 0
-364 -15 0
-363 1 0
-363 3 0
-363 12 0
-363 13 0
-363 -11 0
-362 15 0
-362 13 0
-362 3 0
-362 8 0
-362 -11 0
-361 2 0
-361 15 0
-361 12 0
-361 -11 0
-360 2 0
-360 14 0
-360 -11 0
-359 3 0
-359 14 0
-359 7 0
-359 15 0
-359 -11 0
-358 8 0
-358 7 0
-358 10 0
-358 4 0
-358 -11 0
-357 9 0
-357 14 0
-357 2 0
-357 8 0
-357 -11 0
-356 15 0
-356 6 0
-356 7 0
-356 4 0
-356 -11 0
-355 10 0
-355 12 0
-355 2 0
-355 14 0
-355 -11 0
-354 10 0
-354 5 0
-354 9 0
-354 7 0
-354 -11 0
-353 15 0
-353 13 0
-353 4 0
-353 -14 0
-352 2 0
-352 6 0
-352 4 0
-352 3 0
-352 -14 0
-351 15 0
-351 2 0
-351 13 0
-351 9 0
-351 -14 0
-350 6 0
-350 9 0
-350 4 0
-350 -14 0
-349 10 0
-349 3 0
-349 15 0
-349 1 0
-349 -14 0
-348 3 0
-348 2 0
-348 9 0
-348 -14 0
-347 8 0
-347 2 0
-347 11 0
-347 15 0
-347 -14 0
-346 9 0
-346 5 0
-346 8 0
-346 13 0
-346 -14 0
-345 13 0
-345 15 0
-345 11 0
-345 -14 0
-344 8 0
-344 7 0
-344 -14 0
-343 6 0
-343 7 0
-343 9 0
-343 -2 0
-342 9 0
-342 11 0
-342 6 0
-342 4 0
-342 -2 0
-341 6 0
-341 12 0
-341 11 0
-341 5 0
-341 -2 0
-340 5 0
-340 11 0
-340 12 0
-340 7 0
-340 -2 0
-339 11 0
-339 1 0
-339 14 0
-339 3 0
-339 -2 0
-338 4 0
-338 15 0
-338 8 0
-338 -2 0
-337 4 0
-337 3 0
-337 10 0
-337 9 0
-337 -2 0
-336 11 0
-336 6 0
-336 3 0
-336 10 0
-336 -2 0
-335 5 0
-335 4 0
-335 15 0
-335 -2 0
-334 5 0
-334 10 0
-334 6 0
-334 14 0
-334 -2 0
-333 7 0
-333 9 0
-333 3 0
-333 -1 0
-332 13 0
-332 10 0
-332 4 0
-332 15 0
-332 -1 0
-331 12 0
-331 4 0
-331 8 0
-331 3 0
-331 -1 0
-330 15 0
-330 9 0
-330 -1 0
-329 6 0
-329 10 0
-329 12 0
-329 8 0
-329 -1 0
-328 6 0
-328 11 0
-328 12 0
-328 -1 0
-327 14 0
-327 10 0
-327 15 0
-327 12 0
-327 -1 0
-326 15 0
-326 4 0
-326 8 0
-326 -1 0
-325 11 0
-325 7 0
-325 15 0
-325 -1 0
-324 14 0
-324 6 0
-324 4 0
-324 3 0
-324 -1 0
-323 5 0
-323 1 0
-323 3 0
-323 9 0
-323 -12 0
-322 14 0
-322 5 0
-322 13 0
-322 -12 0
-321 1 0
-321 14 0
-321 5 0
-321 2 0
-321 -12 0
-320 11 0
-320 1 0
-320 4 0
-320 15 0
-320 -12 0
-319 15 0
-319 10 0
-319 2 0
-319 4 0
-319 -12 0
-318 7 0
-318 11 0
-318 2 0
-318 10 0
-318 -12 0
-317 9 0
-317 14 0
-317 7 0
-317 3 0
-317 -12 0
-316 4 0
-316 14 0
-316 6 0
-316 13 0
-316 -12 0
-315 9 0
-315 15 0
-315 3 0
-315 11 0
-315 -12 0
-314 6 0
-314 4 0
-314 11 0
-314 2 0
-314 -12 0
-313 3 0
-313 7 0
-313 8 0
-313 9 0
-313 -4 0
-312 1 0
-312 10 0
-312 7 0
-312 9 0
-312 -4 0
-311 2 0
-311 3 0
-311 10 0
-311 -4 0
-310 2 0
-310 5 0
-310 11 0
-310 9 0
-310 -4 0
-309 14 0
-309 8 0
-309 3 0
-309 -4 0
-308 9 0
-308 15 0
-308 14 0
-308 7 0
-308 -4 0
-307 13 0
-307 8 0
-307 11 0
-307 -4 0
-306 8 0
-306 9 0
-306 12 0
-306 11 0
-306 -4 0
-305 1 0
-305 8 0
-305 14 0
-305 -4 0
-304 11 0
-304 14 0
-304 8 0
-304 -4 0
-303 3 0
-303 2 0
-303 10 0
-303 14 0
-303 -7 0
-302 10 0
-302 14 0
-302 1 0
-302 -7 0
-301 4 0
-301 10 0
-301 1 0
-301 13 0
-301 -7 0
-300 6 0
-300 10 0
-300 1 0
-300 9 0
-300 -7 0
-299 12 0
-299 13 0
-299 6 0
-299 3 0
-299 -7 0
-298 2 0
-298 13 0
-298 12 0
-298 8 0
-298 -7 0
-297 12 0
-297 5 0
-297 4 0
-297 8 0
-297 -7 0
-296 8 0
-296 6 0
-296 2 0
-296 11 0
-296 -7 0
-295 6 0
-295 2 0
-295 11 0
-295 -7 0
-294 9 0
-294 6 0
-294 14 0
-294 4 0
-294 -7 0
-293 3 0
-293 2 0
-293 8 0
-293 -6 0
-292 10 0
-292 15 0
-292 1 0
-292 13 0
-292 -6 0
-291 2 0
-291 15 0
-291 11 0
-291 13 0
-291 -6 0
-290 2 0
-290 1 0
-290 4 0
-290 5 0
-290 -6 0
-289 7 0
-289 15 0
-289 5 0
-289 14 0
-289 -6 0
-288 3 0
-288 13 0
-288 9 0
-288 12 0
-288 -6 0
-287 11 0
-287 14 0
-287 9 0
-287 15 0
-287 -6 0
-286 12 0
-286 3 0
-286 11 0
-286 -6 0
-285 15 0
-285 4 0
-285 10 0
-285 14 0
-285 -6 0
-284 12 0
-284 14 0
-284 3 0
-284 13 0
-284 -6 0
-283 9 0
-283 3 0
-283 8 0
-283 7 0
-283 -10 0
-282 14 0
-282 9 0
-282 12 0
-282 6 0
-282 -10 0
-281 12 0
-281 8 0
-281 1 0
-281 4 0
-281 -10 0
-280 1 0
-280 3 0
-280 12 0
-280 2 0
-280 -10 0
-279 4 0
-279 9 0
-279 5 0
-279 14 0
-279 -10 0
-278 11 0
-278 1 0
-278 15 0
-278 3 0
-278 -10 0
-277 11 0
-277 3 0
-277 4 0
-277 13 0
-277 -10 0
-276 3 0
-276 14 0
-276 1 0
-276 -10 0
-275 3 0
-275 7 0
-275 13 0
-275 4 0
-275 -10 0
-274 3 0
-274 13 0
-274 11 0
-274 -10 0
-273 -11 0
-273 -12 0
-273 -1 0
-273 -2 0
-272 -11 0
-272 -3 0
-272 -13 0
-272 -8 0
-271 -15 0
-271 -1 0
-271 -4 0
-270 -11 0
-270 -9 0
-270 -7 0
-269 -5 0
-269 -15 0
-269 -10 0
-268 -5 0
-268 -9 0
-268 -12 0
-268 -14 0
-267 -3 0
-267 -5 0
-267 -9 0
-266 -2 0
-266 -7 0
-266 -6 0
-266 -10 0
-265 -14 0
-265 -10 0
-265 -11 0
-264 -7 0
-264 -13 0
-264 -2 0
-264 -8 0
-263 -11 0
-263 -12 0
-263 -15 0
-263 -7 0
-262 -2 0
-262 -6 0
-262 -8 0
-262 -4 0
-261 -2 0
-261 -14 0
-261 -8 0
-261 -4 0
-260 -10 0
-260 -6 0
-260 -12 0
-259 -8 0
-259 -11 0
-259 -12 0
-258 -5 0
-258 -9 0
-258 -13 0
-258 -8 0
-257 -2 0
-257 -13 0
-257 -9 0
-257 -7 0
-256 -8 0
-256 -13 0
-256 -10 0
-256 -9 0
-255 -4 0
-255 -3 0
-254 -13 0
-254 -11 0
-254 -2 0
-254 -12 0
-253 -11 0
-253 -12 0
-253 -6 0
-253 -7 0
-252 -9 0
-252 -1 0
-252 -8 0
-251 -14 0
-251 -8 0
-251 -7 0
-251 -12 0
-250 -12 0
-250 -11 0
-250 -3 0
-249 -14 0
-249 -15 0
-249 -13 0
-248 -11 0
-248 -6 0
-248 -13 0
-248 -1 0
-247 -13 0
-247 -7 0
-247 -15 0
-247 -5 0
-246 -3 0
-246 -15 0
-246 -6 0
-246 -8 0
-245 -2 0
-245 -5 0
-245 -11 0
-244 -7 0
-244 -11 0
-244 -4 0
-243 -13 0
-243 -9 0
-243 -11 0
-243 -4 0
-242 -6 0
-242 -5 0
-242 -15 0
-241 -9 0
-241 -15 0
-241 -6 0
-240 -12 0
-240 -11 0
-240 -14 0
-240 -4 0
-239 -3 0
-239 -11 0
-239 -9 0
-238 -12 0
-238 -4 0
-238 -8 0
-237 -9 0
-237 -2 0
-237 -5 0
-237 -3 0
-236 -9 0
-236 -11 0
-236 -13 0
-235 -10 0
-235 -3 0
-235 -7 0
-234 -8 0
-234 -5 0
-233 -10 0
-233 -2 0
-233 -14 0
-233 -13 0
-232 -9 0
-232 -10 0
-232 -7 0
-232 -3 0
-231 -4 0
-231 -3 0
-231 -6 0
-230 -14 0
-230 -6 0
-230 -2 0
-229 -11 0
-229 -5 0
-229 -7 0
-229 -6 0
-228 -30 -25 -29 -17 24 0
-227 -29 -22 -26 24 0
-226 -22 -27 -29 24 0
-225 -16 -19 -27 24 0
-224 -30 -18 -19 -28 24 0
-223 -29 -23 -25 -28 24 0
-222 -21 -30 -28 -23 24 0
-221 -23 -25 -29 -28 24 0
-220 -29 -26 -30 24 0
-219 -22 -23 -28 -27 24 0
-218 -23 -22 -19 28 0
-217 -22 -23 -27 -20 28 0
-216 -16 -23 -26 28 0
-215 -19 -25 28 0
-214 -26 -21 -27 -22 28 0
-213 -20 -26 -17 -16 28 0
-212 -17 -27 -26 -18 28 0
-211 -17 -27 -21 -23 28 0
-210 -19 -17 -20 -29 28 0
-209 -16 -22 -29 28 0
-208 -26 -22 -20 23 0
-207 -17 -18 -28 23 0
-206 -17 -18 -22 -16 23 0
-205 -22 -20 -17 -28 23 0
-204 -29 -17 -22 -30 23 0
-203 -24 -30 -22 -29 23 0
-202 -26 -28 -17 -21 23 0
-201 -29 -26 -22 -27 23 0
-200 -25 -17 -19 -27 23 0
-199 -17 -29 -19 -30 23 0
-198 -29 -30 -24 20 0
-197 -18 -30 -22 -28 20 0
-196 -29 -30 -26 -18 20 0
-195 -22 -18 -30 -21 20 0
-194 -16 -22 -18 -26 20 0
-193 -24 -27 -19 20 0
-192 -26 -16 -19 -30 20 0
-191 -30 -25 -23 -18 20 0
-190 -19 -29 -30 -24 20 0
-189 -18 -16 -17 -19 20 0
-188 -26 -25 -29 -19 18 0
-187 -20 -16 -22 18 0
-186 -30 -19 -16 -24 18 0
-185 -20 -22 -21 18 0
-184 -16 -24 -26 18 0
-183 -26 -20 18 0
-182 -27 -22 -20 18 0
-181 -25 -19 -23 -21 18 0
-180 -29 -22 -20 -28 18 0
-179 -28 -26 -21 18 0
-178 -29 -23 -22 -19 30 0
-177 -20 -17 -26 30 0
-176 -25 -18 -21 -22 30 0
-175 -29 -17 -18 30 0
-174 -19 -25 -24 -22 30 0
-173 -25 -16 -24 30 0
-172 -20 -18 -21 -29 30 0
-171 -16 -22 -29 30 0
-170 -16 -27 -24 -23 30 0
-169 -17 -19 -22 30 0
-168 -16 -18 -27 -28 26 0
-167 -30 -28 -18 -23 26 0
-166 -17 -30 -27 26 0
-165 -17 -29 26 0
-164 -18 -29 -22 -30 26 0
-163 -23 -22 -25 -19 26 0
-162 -24 -29 -17 -23 26 0
-161 -30 -21 -22 -19 26 0
-160 -25 -27 -17 -29 26 0
-159 -25 -20 -24 -22 26 0
-158 -30 -28 -19 29 0
-157 -17 -21 -19 -18 29 0
-156 -30 -17 -28 -24 29 0
-155 -21 -24 -19 29 0
-154 -25 -18 -30 -16 29 0
-153 -18 -17 -24 29 0
-152 -23 -17 -26 -30 29 0
-151 -24 -20 -23 -28 29 0
-150 -28 -30 -26 29 0
-149 -23 -22 29 0
-148 -21 -22 -24 17 0
-147 -24 -26 -21 -19 17 0
-146 -21 -27 -26 -20 17 0
-145 -20 -26 -27 -22 17 0
-144 -26 -16 -29 -18 17 0
-143 -19 -30 -23 17 0
-142 -19 -18 -25 -24 17 0
-141 -26 -21 -18 -25 17 0
-140 -20 -19 -30 17 0
-139 -20 -25 -21 -29 17 0
-138 -22 -24 -18 16 0
-137 -28 -25 -19 -30 16 0
-136 -27 -19 -23 -18 16 0
-135 -30 -24 16 0
-134 -21 -25 -27 -23 16 0
-133 -21 -26 -27 16 0
-132 -29 -25 -30 -27 16 0
-131 -30 -19 -23 16 0
-130 -26 -22 -30 16 0
-129 -29 -21 -19 -18 16 0
-128 -20 -16 -18 -24 27 0
-127 -29 -20 -28 27 0
-126 -16 -29 -20 -17 27 0
-125 -26 -16 -19 -30 27 0
-124 -30 -25 -17 -19 27 0
-123 -22 -26 -17 -25 27 0
-122 -24 -29 -22 -18 27 0
-121 -19 -29 -21 -28 27 0
-120 -24 -30 -18 -26 27 0
-119 -21 -19 -26 -17 27 0
-118 -18 -22 -23 -24 19 0
-117 -16 -25 -22 -24 19 0
-116 -17 -18 -25 19 0
-115 -17 -20 -26 -24 19 0
-114 -29 -23 -18 19 0
-113 -24 -30 -29 -22 19 0
-112 -28 -23 -26 19 0
-111 -23 -24 -27 -26 19 0
-110 -16 -23 -29 19 0
-109 -26 -29 -23 19 0
-108 -18 -17 -25 -29 22 0
-107 -25 -29 -16 22 0
-106 -19 -25 -16 -28 22 0
-105 -21 -25 -16 -24 22 0
-104 -27 -28 -21 -18 22 0
-103 -17 -28 -27 -23 22 0
-102 -27 -20 -19 -23 22 0
-101 -23 -21 -17 -26 22 0
-100 -21 -17 -26 22 0
-99 -24 -21 -29 -19 22 0
-98 -18 -17 -23 21 0
-97 -25 -30 -16 -28 21 0
-96 -17 -30 -26 -28 21 0
-95 -17 -16 -19 -20 21 0
-94 -22 -30 -20 -29 21 0
-93 -18 -28 -24 -27 21 0
-92 -26 -29 -24 -30 21 0
-91 -27 -18 -26 21 0
-90 -30 -19 -25 -29 21 0
-89 -27 -29 -18 -28 21 0
-88 -24 -18 -23 -22 25 0
-87 -29 -24 -27 -21 25 0
-86 -27 -23 -16 -19 25 0
-85 -16 -18 -27 -17 25 0
-84 -19 -24 -20 -29 25 0
-83 -26 -16 -30 -18 25 0
-82 -26 -18 -19 -28 25 0
-81 -18 -29 -16 25 0
-80 -18 -22 -28 -19 25 0
-79 -18 -28 -26 25 0
-78 26 27 16 17 0
-77 26 18 28 23 0
-76 30 16 19 0
-75 26 24 22 0
-74 20 30 25 0
-73 20 24 27 29 0
-72 18 20 24 0
-71 17 22 21 25 0
-70 29 25 26 0
-69 22 28 17 23 0
-68 26 27 30 22 0
-67 17 21 23 19 0
-66 17 29 23 19 0
-65 25 21 27 0
-64 23 26 27 0
-63 20 24 28 23 0
-62 17 28 24 22 0
-61 23 28 25 24 0
-60 19 18 0
-59 28 26 17 27 0
-58 26 27 21 22 0
-57 24 16 23 0
-56 29 23 22 27 0
-55 27 26 18 0
-54 29 30 28 0
-53 26 21 28 16 0
-52 28 22 30 20 0
-51 18 30 21 23 0
-50 17 20 26 0
-49 22 26 19 0
-48 28 24 26 19 0
-47 21 20 30 0
-46 24 30 21 0
-45 27 26 29 19 0
-44 18 26 24 0
-43 27 19 23 0
-42 24 17 20 18 0
-41 24 26 28 0
-40 25 18 22 0
-39 23 20 0
-38 25 17 29 28 0
-37 24 25 22 18 0
-36 19 18 21 0
-35 29 21 17 0
-34 26 20 22 21 0
-33 228 0
-33 227 0
-33 226 0
-33 225 0
-33 224 0
-33 223 0
-33 222 0
-33 221 0
-33 220 0
-33 219 0
-33 218 0
-33 217 0
-33 216 0
-33 215 0
-33 214 0
-33 213 0
-33 212 0
-33 211 0
-33 210 0
-33 209 0
-33 208 0
-33 207 0
-33 206 0
-33 205 0
-33 204 0
-33 203 0
-33 202 0
-33 201 0
-33 200 0
-33 199 0
-33 198 0
-33 197 0
-33 196 0
-33 195 0
-33 194 0
-33 193 0
-33 192 0
-33 191 0
-33 190 0
-33 189 0
-33 188 0
-33 187 0
-33 186 0
-33 185 0
-33 184 0
-33 183 0
-33 182 0
-33 181 0
-33 180 0
-33 179 0
-33 178 0
-33 177 0
-33 176 0
-33 175 0
-33 174 0
-33 173 0
-33 172 0
-33 171 0
-33 170 0
-33 169 0
-33 168 0
-33 167 0
-33 166 0
-33 165 0
-33 164 0
-33 163 0
-33 162 0
-33 161 0
-33 160 0
-33 159 0
-33 158 0
-33 157 0
-33 156 0
-33 155 0
-33 154 0
-33 153 0
-33 152 0
-33 151 0
-33 150 0
-33 149 0
-33 148 0
-33 147 0
-33 146 0
-33 145 0
-33 144 0
-33 143 0
-33 142 0
-33 141 0
-33 140 0
-33 139 0
-33 138 0
-33 137 0
-33 136 0
-33 135 0
-33 134 0
-33 133 0
-33 132 0
-33 131 0
-33 130 0
-33 129 0
-33 128 0
-33 127 0
-33 126 0
-33 125 0
-33 124 0
-33 123 0
-33 122 0
-33 121 0
-33 120 0
-33 119 0
-33 118 0
-33 117 0
-33 116 0
-33 115 0
-33 114 0
-33 113 0
-33 112 0
-33 111 0
-33 110 0
-33 109 0
-33 108 0
-33 107 0
-33 106 0
-33 105 0
-33 104 0
-33 103 0
-33 102 0
-33 101 0
-33 100 0
-33 99 0
-33 98 0
-33 97 0
-33 96 0
-33 95 0
-33 94 0
-33 93 0
-33 92 0
-33 91 0
-33 90 0
-33 89 0
-33 88 0
-33 87 0
-33 86 0
-33 85 0
-33 84 0
-33 83 0
-33 82 0
-33 81 0
-33 80 0
-33 79 0
-33 78 0
-33 77 0
-33 76 0
-33 75 0
-33 74 0
-33 73 0
-33 72 0
-33 71 0
-33 70 0
-33 69 0
-33 68 0
-33 67 0
-33 66 0
-33 65 0
-33 64 0
-33 63 0
-33 62 0
-33 61 0
-33 60 0
-33 59 0
-33 58 0
-33 57 0
-33 56 0
-33 55 0
-33 54 0
-33 53 0
-33 52 0
-33 51 0
-33 50 0
-33 49 0
-33 48 0
-33 47 0
-33 46 0
-33 45 0
-33 44 0
-33 43 0
-33 42 0
-33 41 0
-33 40 0
-33 39 0
-33 38 0
-33 37 0
-33 36 0
-33 35 0
-33 34 0
-32 423 422 421 420 419 418 417 416 415 414 413 412 411 410 409 408 407 406 405 404 403 402 401 400 399 398 397 396 395 394 393 392 391 390 389 388 387 386 385 384 383 382 381 380 379 378 377 376 375 374 373 372 371 370 369 368 367 366 365 364 363 362 361 360 359 358 357 356 355 354 353 352 351 350 349 348 347 346 345 344 343 342 341 340 339 338 337 336 335 334 333 332 331 330 329 328 327 326 325 324 323 322 321 320 319 318 317 316 315 314 313 312 311 310 309 308 307 306 305 304 303 302 301 300 299 298 297 296 295 294 293 292 291 290 289 288 287 286 285 284 283 282 281 280 279 278 277 276 275 274 273 272 271 270 269 268 267 266 265 264 263 262 261 260 259 258 257 256 255 254 253 252 251 250 249 248 247 246 245 244 243 242 241 240 239 238 237 236 235 234 233 232 231 230 229 33 0
-31 469 0
-31 468 0
-31 467 0
-31 466 0
-31 465 0
-31 464 0
-31 463 0
-31 462 0
-31 461 0
-31 460 0
-31 459 0
-31 458 0
-31 457 0
-31 456 0
-31 455 0
-31 424 0
-31 32 0
31 -9 -13 0

